Maximize

1.0 x_0_1 + 2.0 x_0_2 + 3.0 x_0_3 + 4.0 x_0_4 + 5.0 x_0_5 + 1.0 x_1_1 + 2.0 x_1_2 + 3.0 x_1_3 + 4.0 x_1_4 + 5.0 x_1_5 + 0.0 x_2_1 + 1.0 x_2_2 + 2.0 x_2_3 + 3.0 x_2_4 + 5.0 x_2_5 + 0.0 x_3_1 + 3.0 x_3_2 + 2.0 x_3_3 + 2.0 x_3_4 + 5.0 x_3_5 + 5.0 x_4_1 + 4.0 x_4_2 + 3.0 x_4_3 + 2.0 x_4_4 + 1.0 x_4_5 + 5.0 x_5_1 + 4.0 x_5_2 + 3.0 x_5_3 + 2.0 x_5_4 + 1.0 x_5_5 + 5.0 x_6_1 + 3.0 x_6_2 + 2.0 x_6_3 + 1.0 x_6_4 + 0.0 x_6_5 + 5.0 x_7_1 + 2.0 x_7_2 + 4.0 x_7_3 + 1.0 x_7_4 + 0.0 x_7_5 + 1.0 x_8_1 + 5.0 x_8_2 + 3.0 x_8_3 + 2.0 x_8_4 + 0.0 x_8_5 + 0.0 x_9_1 + 5.0 x_9_2 + 4.0 x_9_3 + 3.0 x_9_4 + 1.0 x_9_5 + 0.0 x_10_1 + 5.0 x_10_2 + 1.0 x_10_3 + 1.0 x_10_4 + 2.0 x_10_5 + 1.0 x_11_1 + 5.0 x_11_2 + 2.0 x_11_3 + 5.0 x_11_4 + 3.0 x_11_5 + 2.0 x_12_1 + 2.0 x_12_2 + 5.0 x_12_3 + 4.0 x_12_4 + 4.0 x_12_5 + 3.0 x_13_1 + 0.0 x_13_2 + 5.0 x_13_3 + 0.0 x_13_4 + 1.0 x_13_5 + 5.0 x_14_1 + 4.0 x_14_2 + 5.0 x_14_3 + 0.0 x_14_4 + 0.0 x_14_5 + 0.0 x_15_1 + 1.0 x_15_2 + 5.0 x_15_3 + 4.0 x_15_4 + 2.0 x_15_5 + 1.0 x_16_1 + 2.0 x_16_2 + 1.0 x_16_3 + 5.0 x_16_4 + 3.0 x_16_5 + 3.0 x_17_1 + 2.0 x_17_2 + 0.0 x_17_3 + 5.0 x_17_4 + 1.0 x_17_5 + 4.0 x_18_1 + 3.0 x_18_2 + 2.0 x_18_3 + 5.0 x_18_4 + 0.0 x_18_5 + 1.0 x_19_1 + 4.0 x_19_2 + 1.0 x_19_3 + 5.0 x_19_4 + 2.0 x_19_5


Subject To

a0: x_0_1 + x_0_2 + x_0_3 + x_0_4 + x_0_5 = 1
a1: x_1_1 + x_1_2 + x_1_3 + x_1_4 + x_1_5 = 1
a2: x_2_1 + x_2_2 + x_2_3 + x_2_4 + x_2_5 = 1
a3: x_3_1 + x_3_2 + x_3_3 + x_3_4 + x_3_5 = 1
a4: x_4_1 + x_4_2 + x_4_3 + x_4_4 + x_4_5 = 1
a5: x_5_1 + x_5_2 + x_5_3 + x_5_4 + x_5_5 = 1
a6: x_6_1 + x_6_2 + x_6_3 + x_6_4 + x_6_5 = 1
a7: x_7_1 + x_7_2 + x_7_3 + x_7_4 + x_7_5 = 1
a8: x_8_1 + x_8_2 + x_8_3 + x_8_4 + x_8_5 = 1
a9: x_9_1 + x_9_2 + x_9_3 + x_9_4 + x_9_5 = 1
a10: x_10_1 + x_10_2 + x_10_3 + x_10_4 + x_10_5 = 1
a11: x_11_1 + x_11_2 + x_11_3 + x_11_4 + x_11_5 = 1
a12: x_12_1 + x_12_2 + x_12_3 + x_12_4 + x_12_5 = 1
a13: x_13_1 + x_13_2 + x_13_3 + x_13_4 + x_13_5 = 1
a14: x_14_1 + x_14_2 + x_14_3 + x_14_4 + x_14_5 = 1
a15: x_15_1 + x_15_2 + x_15_3 + x_15_4 + x_15_5 = 1
a16: x_16_1 + x_16_2 + x_16_3 + x_16_4 + x_16_5 = 1
a17: x_17_1 + x_17_2 + x_17_3 + x_17_4 + x_17_5 = 1
a18: x_18_1 + x_18_2 + x_18_3 + x_18_4 + x_18_5 = 1
a19: x_19_1 + x_19_2 + x_19_3 + x_19_4 + x_19_5 = 1
b0: x_0_1 + x_1_1 + x_4_1 + x_5_1 + x_6_1 + x_7_1 + x_8_1 + x_11_1 + x_12_1 + x_13_1 + x_14_1 + x_16_1 + x_17_1 + x_18_1 + x_19_1 = 4
b1: x_0_2 + x_1_2 + x_2_2 + x_3_2 + x_4_2 + x_5_2 + x_6_2 + x_7_2 + x_8_2 + x_9_2 + x_10_2 + x_11_2 + x_12_2 + x_14_2 + x_15_2 + x_16_2 + x_17_2 + x_18_2 + x_19_2 = 4
b2: x_0_3 + x_1_3 + x_2_3 + x_3_3 + x_4_3 + x_5_3 + x_6_3 + x_7_3 + x_8_3 + x_9_3 + x_10_3 + x_11_3 + x_12_3 + x_13_3 + x_14_3 + x_15_3 + x_16_3 + x_18_3 + x_19_3 = 4
b3: x_0_4 + x_1_4 + x_2_4 + x_3_4 + x_4_4 + x_5_4 + x_6_4 + x_7_4 + x_8_4 + x_9_4 + x_10_4 + x_11_4 + x_12_4 + x_15_4 + x_16_4 + x_17_4 + x_18_4 + x_19_4 = 4
b4: x_0_5 + x_1_5 + x_2_5 + x_3_5 + x_4_5 + x_5_5 + x_9_5 + x_10_5 + x_11_5 + x_12_5 + x_13_5 + x_15_5 + x_16_5 + x_17_5 + x_19_5 = 4




Binary

x_0_1 x_0_2 x_0_3 x_0_4 x_0_5 x_1_1 x_1_2 x_1_3 x_1_4 x_1_5 x_2_1 x_2_2 x_2_3 x_2_4 x_2_5 x_3_1 x_3_2 x_3_3 x_3_4 x_3_5 x_4_1 x_4_2 x_4_3 x_4_4 x_4_5 x_5_1 x_5_2 x_5_3 x_5_4 x_5_5 x_6_1 x_6_2 x_6_3 x_6_4 x_6_5 x_7_1 x_7_2 x_7_3 x_7_4 x_7_5 x_8_1 x_8_2 x_8_3 x_8_4 x_8_5 x_9_1 x_9_2 x_9_3 x_9_4 x_9_5 x_10_1 x_10_2 x_10_3 x_10_4 x_10_5 x_11_1 x_11_2 x_11_3 x_11_4 x_11_5 x_12_1 x_12_2 x_12_3 x_12_4 x_12_5 x_13_1 x_13_2 x_13_3 x_13_4 x_13_5 x_14_1 x_14_2 x_14_3 x_14_4 x_14_5 x_15_1 x_15_2 x_15_3 x_15_4 x_15_5 x_16_1 x_16_2 x_16_3 x_16_4 x_16_5 x_17_1 x_17_2 x_17_3 x_17_4 x_17_5 x_18_1 x_18_2 x_18_3 x_18_4 x_18_5 x_19_1 x_19_2 x_19_3 x_19_4 x_19_5

 
End
